(set-logic QF_LRA)
(declare-fun X0 () Real )
(declare-fun Y0 () Real )
(declare-fun X1 () Real )
(declare-fun Y1 () Real )
(declare-fun X2 () Real )
(declare-fun Y2 () Real )
(declare-fun X3 () Real )
(declare-fun Y3 () Real )
(declare-fun X4 () Real )
(declare-fun Y4 () Real )
(declare-fun X5 () Real )
(declare-fun Y5 () Real )
(declare-fun X6 () Real )
(declare-fun Y6 () Real )
(declare-fun X7 () Real )
(declare-fun Y7 () Real )
(declare-fun X8 () Real )
(declare-fun Y8 () Real )
(declare-fun X9 () Real )
(declare-fun Y9 () Real )
(declare-fun X10 () Real )
(declare-fun Y10 () Real )
(declare-fun X11 () Real )
(declare-fun Y11 () Real )
(declare-fun Z () Real )
(assert ( and  
( or ( <= ( + X0 77 ) X1 )  ( <= ( + X1 61 ) X0 )  ( <= ( + Y0 31 ) Y1 )  ( <= ( + Y1 90 ) Y0 )  )
( or ( <= ( + X0 77 ) X2 )  ( <= ( + X2 39 ) X0 )  ( <= ( + Y0 31 ) Y2 )  ( <= ( + Y2 69 ) Y0 )  )
( or ( <= ( + X0 77 ) X3 )  ( <= ( + X3 83 ) X0 )  ( <= ( + Y0 31 ) Y3 )  ( <= ( + Y3 55 ) Y0 )  )
( or ( <= ( + X0 77 ) X4 )  ( <= ( + X4 79 ) X0 )  ( <= ( + Y0 31 ) Y4 )  ( <= ( + Y4 40 ) Y0 )  )
( or ( <= ( + X0 77 ) X5 )  ( <= ( + X5 89 ) X0 )  ( <= ( + Y0 31 ) Y5 )  ( <= ( + Y5 51 ) Y0 )  )
( or ( <= ( + X0 77 ) X6 )  ( <= ( + X6 43 ) X0 )  ( <= ( + Y0 31 ) Y6 )  ( <= ( + Y6 85 ) Y0 )  )
( or ( <= ( + X0 77 ) X7 )  ( <= ( + X7 36 ) X0 )  ( <= ( + Y0 31 ) Y7 )  ( <= ( + Y7 39 ) Y0 )  )
( or ( <= ( + X0 77 ) X8 )  ( <= ( + X8 10 ) X0 )  ( <= ( + Y0 31 ) Y8 )  ( <= ( + Y8 17 ) Y0 )  )
( or ( <= ( + X0 77 ) X9 )  ( <= ( + X9 81 ) X0 )  ( <= ( + Y0 31 ) Y9 )  ( <= ( + Y9 73 ) Y0 )  )
( or ( <= ( + X0 77 ) X10 )  ( <= ( + X10 37 ) X0 )  ( <= ( + Y0 31 ) Y10 )  ( <= ( + Y10 87 ) Y0 )  )
( or ( <= ( + X0 77 ) X11 )  ( <= ( + X11 26 ) X0 )  ( <= ( + Y0 31 ) Y11 )  ( <= ( + Y11 38 ) Y0 )  )
( or ( <= ( + X1 61 ) X2 )  ( <= ( + X2 39 ) X1 )  ( <= ( + Y1 90 ) Y2 )  ( <= ( + Y2 69 ) Y1 )  )
( or ( <= ( + X1 61 ) X3 )  ( <= ( + X3 83 ) X1 )  ( <= ( + Y1 90 ) Y3 )  ( <= ( + Y3 55 ) Y1 )  )
( or ( <= ( + X1 61 ) X4 )  ( <= ( + X4 79 ) X1 )  ( <= ( + Y1 90 ) Y4 )  ( <= ( + Y4 40 ) Y1 )  )
( or ( <= ( + X1 61 ) X5 )  ( <= ( + X5 89 ) X1 )  ( <= ( + Y1 90 ) Y5 )  ( <= ( + Y5 51 ) Y1 )  )
( or ( <= ( + X1 61 ) X6 )  ( <= ( + X6 43 ) X1 )  ( <= ( + Y1 90 ) Y6 )  ( <= ( + Y6 85 ) Y1 )  )
( or ( <= ( + X1 61 ) X7 )  ( <= ( + X7 36 ) X1 )  ( <= ( + Y1 90 ) Y7 )  ( <= ( + Y7 39 ) Y1 )  )
( or ( <= ( + X1 61 ) X8 )  ( <= ( + X8 10 ) X1 )  ( <= ( + Y1 90 ) Y8 )  ( <= ( + Y8 17 ) Y1 )  )
( or ( <= ( + X1 61 ) X9 )  ( <= ( + X9 81 ) X1 )  ( <= ( + Y1 90 ) Y9 )  ( <= ( + Y9 73 ) Y1 )  )
( or ( <= ( + X1 61 ) X10 )  ( <= ( + X10 37 ) X1 )  ( <= ( + Y1 90 ) Y10 )  ( <= ( + Y10 87 ) Y1 )  )
( or ( <= ( + X1 61 ) X11 )  ( <= ( + X11 26 ) X1 )  ( <= ( + Y1 90 ) Y11 )  ( <= ( + Y11 38 ) Y1 )  )
( or ( <= ( + X2 39 ) X3 )  ( <= ( + X3 83 ) X2 )  ( <= ( + Y2 69 ) Y3 )  ( <= ( + Y3 55 ) Y2 )  )
( or ( <= ( + X2 39 ) X4 )  ( <= ( + X4 79 ) X2 )  ( <= ( + Y2 69 ) Y4 )  ( <= ( + Y4 40 ) Y2 )  )
( or ( <= ( + X2 39 ) X5 )  ( <= ( + X5 89 ) X2 )  ( <= ( + Y2 69 ) Y5 )  ( <= ( + Y5 51 ) Y2 )  )
( or ( <= ( + X2 39 ) X6 )  ( <= ( + X6 43 ) X2 )  ( <= ( + Y2 69 ) Y6 )  ( <= ( + Y6 85 ) Y2 )  )
( or ( <= ( + X2 39 ) X7 )  ( <= ( + X7 36 ) X2 )  ( <= ( + Y2 69 ) Y7 )  ( <= ( + Y7 39 ) Y2 )  )
( or ( <= ( + X2 39 ) X8 )  ( <= ( + X8 10 ) X2 )  ( <= ( + Y2 69 ) Y8 )  ( <= ( + Y8 17 ) Y2 )  )
( or ( <= ( + X2 39 ) X9 )  ( <= ( + X9 81 ) X2 )  ( <= ( + Y2 69 ) Y9 )  ( <= ( + Y9 73 ) Y2 )  )
( or ( <= ( + X2 39 ) X10 )  ( <= ( + X10 37 ) X2 )  ( <= ( + Y2 69 ) Y10 )  ( <= ( + Y10 87 ) Y2 )  )
( or ( <= ( + X2 39 ) X11 )  ( <= ( + X11 26 ) X2 )  ( <= ( + Y2 69 ) Y11 )  ( <= ( + Y11 38 ) Y2 )  )
( or ( <= ( + X3 83 ) X4 )  ( <= ( + X4 79 ) X3 )  ( <= ( + Y3 55 ) Y4 )  ( <= ( + Y4 40 ) Y3 )  )
( or ( <= ( + X3 83 ) X5 )  ( <= ( + X5 89 ) X3 )  ( <= ( + Y3 55 ) Y5 )  ( <= ( + Y5 51 ) Y3 )  )
( or ( <= ( + X3 83 ) X6 )  ( <= ( + X6 43 ) X3 )  ( <= ( + Y3 55 ) Y6 )  ( <= ( + Y6 85 ) Y3 )  )
( or ( <= ( + X3 83 ) X7 )  ( <= ( + X7 36 ) X3 )  ( <= ( + Y3 55 ) Y7 )  ( <= ( + Y7 39 ) Y3 )  )
( or ( <= ( + X3 83 ) X8 )  ( <= ( + X8 10 ) X3 )  ( <= ( + Y3 55 ) Y8 )  ( <= ( + Y8 17 ) Y3 )  )
( or ( <= ( + X3 83 ) X9 )  ( <= ( + X9 81 ) X3 )  ( <= ( + Y3 55 ) Y9 )  ( <= ( + Y9 73 ) Y3 )  )
( or ( <= ( + X3 83 ) X10 )  ( <= ( + X10 37 ) X3 )  ( <= ( + Y3 55 ) Y10 )  ( <= ( + Y10 87 ) Y3 )  )
( or ( <= ( + X3 83 ) X11 )  ( <= ( + X11 26 ) X3 )  ( <= ( + Y3 55 ) Y11 )  ( <= ( + Y11 38 ) Y3 )  )
( or ( <= ( + X4 79 ) X5 )  ( <= ( + X5 89 ) X4 )  ( <= ( + Y4 40 ) Y5 )  ( <= ( + Y5 51 ) Y4 )  )
( or ( <= ( + X4 79 ) X6 )  ( <= ( + X6 43 ) X4 )  ( <= ( + Y4 40 ) Y6 )  ( <= ( + Y6 85 ) Y4 )  )
( or ( <= ( + X4 79 ) X7 )  ( <= ( + X7 36 ) X4 )  ( <= ( + Y4 40 ) Y7 )  ( <= ( + Y7 39 ) Y4 )  )
( or ( <= ( + X4 79 ) X8 )  ( <= ( + X8 10 ) X4 )  ( <= ( + Y4 40 ) Y8 )  ( <= ( + Y8 17 ) Y4 )  )
( or ( <= ( + X4 79 ) X9 )  ( <= ( + X9 81 ) X4 )  ( <= ( + Y4 40 ) Y9 )  ( <= ( + Y9 73 ) Y4 )  )
( or ( <= ( + X4 79 ) X10 )  ( <= ( + X10 37 ) X4 )  ( <= ( + Y4 40 ) Y10 )  ( <= ( + Y10 87 ) Y4 )  )
( or ( <= ( + X4 79 ) X11 )  ( <= ( + X11 26 ) X4 )  ( <= ( + Y4 40 ) Y11 )  ( <= ( + Y11 38 ) Y4 )  )
( or ( <= ( + X5 89 ) X6 )  ( <= ( + X6 43 ) X5 )  ( <= ( + Y5 51 ) Y6 )  ( <= ( + Y6 85 ) Y5 )  )
( or ( <= ( + X5 89 ) X7 )  ( <= ( + X7 36 ) X5 )  ( <= ( + Y5 51 ) Y7 )  ( <= ( + Y7 39 ) Y5 )  )
( or ( <= ( + X5 89 ) X8 )  ( <= ( + X8 10 ) X5 )  ( <= ( + Y5 51 ) Y8 )  ( <= ( + Y8 17 ) Y5 )  )
( or ( <= ( + X5 89 ) X9 )  ( <= ( + X9 81 ) X5 )  ( <= ( + Y5 51 ) Y9 )  ( <= ( + Y9 73 ) Y5 )  )
( or ( <= ( + X5 89 ) X10 )  ( <= ( + X10 37 ) X5 )  ( <= ( + Y5 51 ) Y10 )  ( <= ( + Y10 87 ) Y5 )  )
( or ( <= ( + X5 89 ) X11 )  ( <= ( + X11 26 ) X5 )  ( <= ( + Y5 51 ) Y11 )  ( <= ( + Y11 38 ) Y5 )  )
( or ( <= ( + X6 43 ) X7 )  ( <= ( + X7 36 ) X6 )  ( <= ( + Y6 85 ) Y7 )  ( <= ( + Y7 39 ) Y6 )  )
( or ( <= ( + X6 43 ) X8 )  ( <= ( + X8 10 ) X6 )  ( <= ( + Y6 85 ) Y8 )  ( <= ( + Y8 17 ) Y6 )  )
( or ( <= ( + X6 43 ) X9 )  ( <= ( + X9 81 ) X6 )  ( <= ( + Y6 85 ) Y9 )  ( <= ( + Y9 73 ) Y6 )  )
( or ( <= ( + X6 43 ) X10 )  ( <= ( + X10 37 ) X6 )  ( <= ( + Y6 85 ) Y10 )  ( <= ( + Y10 87 ) Y6 )  )
( or ( <= ( + X6 43 ) X11 )  ( <= ( + X11 26 ) X6 )  ( <= ( + Y6 85 ) Y11 )  ( <= ( + Y11 38 ) Y6 )  )
( or ( <= ( + X7 36 ) X8 )  ( <= ( + X8 10 ) X7 )  ( <= ( + Y7 39 ) Y8 )  ( <= ( + Y8 17 ) Y7 )  )
( or ( <= ( + X7 36 ) X9 )  ( <= ( + X9 81 ) X7 )  ( <= ( + Y7 39 ) Y9 )  ( <= ( + Y9 73 ) Y7 )  )
( or ( <= ( + X7 36 ) X10 )  ( <= ( + X10 37 ) X7 )  ( <= ( + Y7 39 ) Y10 )  ( <= ( + Y10 87 ) Y7 )  )
( or ( <= ( + X7 36 ) X11 )  ( <= ( + X11 26 ) X7 )  ( <= ( + Y7 39 ) Y11 )  ( <= ( + Y11 38 ) Y7 )  )
( or ( <= ( + X8 10 ) X9 )  ( <= ( + X9 81 ) X8 )  ( <= ( + Y8 17 ) Y9 )  ( <= ( + Y9 73 ) Y8 )  )
( or ( <= ( + X8 10 ) X10 )  ( <= ( + X10 37 ) X8 )  ( <= ( + Y8 17 ) Y10 )  ( <= ( + Y10 87 ) Y8 )  )
( or ( <= ( + X8 10 ) X11 )  ( <= ( + X11 26 ) X8 )  ( <= ( + Y8 17 ) Y11 )  ( <= ( + Y11 38 ) Y8 )  )
( or ( <= ( + X9 81 ) X10 )  ( <= ( + X10 37 ) X9 )  ( <= ( + Y9 73 ) Y10 )  ( <= ( + Y10 87 ) Y9 )  )
( or ( <= ( + X9 81 ) X11 )  ( <= ( + X11 26 ) X9 )  ( <= ( + Y9 73 ) Y11 )  ( <= ( + Y11 38 ) Y9 )  )
( or ( <= ( + X10 37 ) X11 )  ( <= ( + X11 26 ) X10 )  ( <= ( + Y10 87 ) Y11 )  ( <= ( + Y11 38 ) Y10 )  )
( >= X0 0)
( <= ( + X0 77) Z)
( >= Y0 0)
( <= ( + Y0 31 ) 100)
( >= X1 0)
( <= ( + X1 61) Z)
( >= Y1 0)
( <= ( + Y1 90 ) 100)
( >= X2 0)
( <= ( + X2 39) Z)
( >= Y2 0)
( <= ( + Y2 69 ) 100)
( >= X3 0)
( <= ( + X3 83) Z)
( >= Y3 0)
( <= ( + Y3 55 ) 100)
( >= X4 0)
( <= ( + X4 79) Z)
( >= Y4 0)
( <= ( + Y4 40 ) 100)
( >= X5 0)
( <= ( + X5 89) Z)
( >= Y5 0)
( <= ( + Y5 51 ) 100)
( >= X6 0)
( <= ( + X6 43) Z)
( >= Y6 0)
( <= ( + Y6 85 ) 100)
( >= X7 0)
( <= ( + X7 36) Z)
( >= Y7 0)
( <= ( + Y7 39 ) 100)
( >= X8 0)
( <= ( + X8 10) Z)
( >= Y8 0)
( <= ( + Y8 17 ) 100)
( >= X9 0)
( <= ( + X9 81) Z)
( >= Y9 0)
( <= ( + Y9 73 ) 100)
( >= X10 0)
( <= ( + X10 37) Z)
( >= Y10 0)
( <= ( + Y10 87 ) 100)
( >= X11 0)
( <= ( + X11 26) Z)
( >= Y11 0)
( <= ( + Y11 38 ) 100)
) )
(minimize Z)
(check-sat)
